CPLEX 12.4.0.0: timing=1
varsel=4
mipdisplay=4
timelimit=7200
MIP Presolve eliminated 168100 rows and 861 columns.
MIP Presolve modified 8200 coefficients.
Reduced MIP has 31980 rows, 820 columns, and 95940 nonzeros.
Reduced MIP has 820 binaries, 0 generals, 0 SOSs, and 0 indicators.
Probing time =    0.01 sec.
Found feasible solution after 11.84 sec.  Objective = 0.0000
Probing time =    0.01 sec.
MIP emphasis: balance optimality and feasibility.
MIP search method: dynamic search.
Parallel mode: deterministic, using up to 4 threads.
Root relaxation solution time =    1.95 sec.

        Nodes                                         Cuts/
   Node  Left     Objective  IInf  Best Integer    Best Bound    ItCnt     Gap

*     0+    0                            0.0000                   8249     --- 
      0     0        0.3899   398        0.0000        0.3899     8249     --- 
*     0+    0                            0.1914        0.3899     8249  103.74%
      0     0        0.3851   443        0.1914     Cuts: 526     8884  101.22%
      0     0        0.3812   516        0.1914     Cuts: 581     9698   99.19%
*     0+    0                            0.2393        0.3812     9698   59.32%
      0     0        0.3748   521        0.2393 ZeroHalf: 419    10419   56.65%
*     0+    0                            0.2500        0.3748    10419   49.93%
      0     0        0.3711   535        0.2500 ZeroHalf: 441    11029   48.45%
*     0+    0                            0.2669        0.3711    11029   39.07%
      0     0        0.3672   544        0.2669 ZeroHalf: 260    11659   37.59%
      0     0        0.3652   553        0.2669 ZeroHalf: 192    12173   36.85%
      0     0        0.3639   545        0.2669 ZeroHalf: 124    12548   36.36%
      0     0        0.3623   549        0.2669  ZeroHalf: 87    13045   35.77%
      0     0        0.3609   546        0.2669 ZeroHalf: 300    13463   35.23%
*     0+    0                            0.2814        0.3609    13463   28.22%
      0     0        0.3600   553        0.2814 ZeroHalf: 146    13900   27.91%
*     0+    0                            0.2850        0.3600    14186   26.32%
      0     0        0.3594   557        0.2850  ZeroHalf: 37    14186   26.10%
      0     0        0.3587   540        0.2850  ZeroHalf: 43    14536   25.87%
      0     0        0.3584   546        0.2850  ZeroHalf: 34    14840   25.75%
      0     0        0.3580   553        0.2850  ZeroHalf: 39    15149   25.61%
      0     0        0.3578   539        0.2850  ZeroHalf: 40    15370   25.54%
      0     0        0.3575   549        0.2850  ZeroHalf: 25    15674   25.46%
      0     0        0.3572   551        0.2850 ZeroHalf: 162    15965   25.36%
      0     0        0.3570   555        0.2850  ZeroHalf: 58    16208   25.26%
*     0+    0                            0.2959        0.3570    16425   20.64%
      0     0        0.3568   550        0.2959  ZeroHalf: 18    16425   20.59%
      0     0        0.3568   561        0.2959  ZeroHalf: 12    16549   20.57%
*     0+    0                            0.3153        0.3568    16549   13.16%
      0     2        0.3568   561        0.3153        0.3568    16549   13.16%
Elapsed real time = 207.49 sec. (tree size =  0.01 MB)
      1     3        0.3549   531        0.3153        0.3568    17890   13.16%
      2     4        0.3551   551        0.3153        0.3568    19474   13.16%
      3     5        0.3534   519        0.3153        0.3551    20846   12.62%
      4     6        0.3524   526        0.3153        0.3551    23173   12.62%
      7     9        0.3484   509        0.3153        0.3551    27289   12.62%
      9    11        0.3508   516        0.3153        0.3551    29975   12.62%
     10    12        0.3490   518        0.3153        0.3534    32783   12.08%
                                                 ZeroHalf: 27                  
     14    16        0.3486   503        0.3153        0.3534    42556   12.08%
                                                  ZeroHalf: 8                  
     15    17        0.3468   515        0.3153        0.3534    45637   12.08%
     22    24        0.3444   478        0.3153        0.3534    54504   12.08%
Elapsed real time = 315.80 sec. (tree size =  0.39 MB)
     30    32        0.3409   453        0.3153        0.3534    65048   12.08%
     37    39        0.3381   441        0.3153        0.3534    74461   12.08%
     38    40        0.3352   470        0.3153        0.3534    77440   12.08%
     44    46        0.3330   444        0.3153        0.3534    80885   12.08%
*    51    51      integral     0        0.3340        0.3534    86122    5.79%
*    54    50      integral     0        0.3370        0.3534    88997    4.84%
     56    50        0.3271   294        0.3370        0.3534    91436    4.84%
     62    40        0.3437   500        0.3370        0.3534    98515    4.84%
                                                 ZeroHalf: 15                  
     66    44        0.3430   490        0.3370        0.3534   102005    4.84%
     87    57        0.3451   505        0.3370        0.3534   118393    4.84%
Elapsed real time = 474.46 sec. (tree size =  1.91 MB)
     99    65        0.3401   464        0.3370        0.3491   124895    3.57%
                                                 ZeroHalf: 10                  
    116    66        0.3400   468        0.3370        0.3491   132930    3.57%
*   123+   66                            0.3394        0.3491   138654    2.84%
    123    68        0.3454   465        0.3394        0.3491   138654    2.84%
*   125+   66                            0.3394        0.3491   140119    2.84%
    125    68        0.3409   475        0.3394        0.3491   140119    2.84%
*   129    66      integral     0        0.3401        0.3491   141158    2.65%
*   131    58      integral     0        0.3440        0.3491   141636    1.47%
*   137    48      integral     0        0.3444        0.3491   144796    1.35%
    163    11        0.3457   506        0.3444        0.3473   154365    0.82%
                                                 ZeroHalf: 24                  

Zero-half cuts applied:  279

Root node processing (before b&c):
  Real time             =  195.53
Parallel b&c, 4 threads:
  Real time             =  348.94
  Sync time (average)   =    1.14
  Wait time (average)   =    0.00
                          -------
Total (root+branch&cut) =  544.47 sec.

Times (seconds):
Input =  0.25596
Solve =  645.069
Output = 0.418937
CPLEX 12.4.0.0: optimal integer solution; objective 0.3444398167
155917 MIP simplex iterations
175 branch-and-bound nodes
_total_solve_user_time = 645.177

t [*,*]
:    1   2   3   4   5   6   7   8   9  10  11  12  13  14  15  16  17  18  19 :=
1    0   0   1   1   1   1   1   1   1   0   0   1   0   1   1   1   1   1   1
2    0   0   1   1   1   1   1   1   1   0   0   1   0   1   1   1   1   1   1
3    1   1   0   0   1   1   1   1   1   1   1   1   1   0   1   1   0   0   1
4    1   1   0   0   1   1   1   1   1   1   1   1   1   0   1   1   0   0   1
5    1   1   1   1   0   0   1   1   1   1   1   1   1   1   0   0   1   1   1
6    1   1   1   1   0   0   1   1   1   1   1   1   1   1   0   0   1   1   1
7    1   1   1   1   1   1   0   0   0   1   1   0   1   1   1   1   1   1   0
8    1   1   1   1   1   1   0   0   0   1   1   0   1   1   1   1   1   1   0
9    1   1   1   1   1   1   0   0   0   1   1   0   1   1   1   1   1   1   0
10   0   0   1   1   1   1   1   1   1   0   0   1   0   1   1   1   1   1   1
11   0   0   1   1   1   1   1   1   1   0   0   1   0   1   1   1   1   1   1
12   1   1   1   1   1   1   0   0   0   1   1   0   1   1   1   1   1   1   0
13   0   0   1   1   1   1   1   1   1   0   0   1   0   1   1   1   1   1   1
14   1   1   0   0   1   1   1   1   1   1   1   1   1   0   1   1   0   0   1
15   1   1   1   1   0   0   1   1   1   1   1   1   1   1   0   0   1   1   1
16   1   1   1   1   0   0   1   1   1   1   1   1   1   1   0   0   1   1   1
17   1   1   0   0   1   1   1   1   1   1   1   1   1   0   1   1   0   0   1
18   1   1   0   0   1   1   1   1   1   1   1   1   1   0   1   1   0   0   1
19   1   1   1   1   1   1   0   0   0   1   1   0   1   1   1   1   1   1   0
20   1   1   0   0   1   1   1   1   1   1   1   1   1   0   1   1   0   0   1
21   1   1   1   1   1   1   1   1   1   1   1   1   1   1   1   1   1   1   1
22   1   1   1   1   1   1   1   1   1   1   1   1   1   1   1   1   1   1   1
23   1   1   1   1   0   0   1   1   1   1   1   1   1   1   0   0   1   1   1
24   1   1   1   1   1   1   0   0   0   1   1   0   1   1   1   1   1   1   0
25   1   1   1   1   0   0   1   1   1   1   1   1   1   1   0   0   1   1   1
26   1   1   0   0   1   1   1   1   1   1   1   1   1   0   1   1   0   0   1
27   1   1   1   1   1   1   0   0   0   1   1   0   1   1   1   1   1   1   0
28   1   1   1   1   0   0   1   1   1   1   1   1   1   1   0   0   1   1   1
29   0   0   1   1   1   1   1   1   1   0   0   1   0   1   1   1   1   1   1
30   1   1   1   1   1   1   0   0   0   1   1   0   1   1   1   1   1   1   0
31   0   0   1   1   1   1   1   1   1   0   0   1   0   1   1   1   1   1   1
32   1   1   1   1   0   0   1   1   1   1   1   1   1   1   0   0   1   1   1
33   1   1   1   1   1   1   0   0   0   1   1   0   1   1   1   1   1   1   0
34   1   1   1   1   1   1   1   1   1   1   1   1   1   1   1   1   1   1   1
35   0   0   1   1   1   1   1   1   1   0   0   1   0   1   1   1   1   1   1
36   1   1   1   1   1   1   0   0   0   1   1   0   1   1   1   1   1   1   0
37   1   1   0   0   1   1   1   1   1   1   1   1   1   0   1   1   0   0   1
38   1   1   0   0   1   1   1   1   1   1   1   1   1   0   1   1   0   0   1
39   1   1   1   1   0   0   1   1   1   1   1   1   1   1   0   0   1   1   1
40   1   1   1   1   0   0   1   1   1   1   1   1   1   1   0   0   1   1   1
41   1   1   0   0   1   1   1   1   1   1   1   1   1   0   1   1   0   0   1

:   20  21  22  23  24  25  26  27  28  29  30  31  32  33  34  35  36  37  38 :=
1    1   1   1   1   1   1   1   1   1   0   1   0   1   1   1   0   1   1   1
2    1   1   1   1   1   1   1   1   1   0   1   0   1   1   1   0   1   1   1
3    0   1   1   1   1   1   0   1   1   1   1   1   1   1   1   1   1   0   0
4    0   1   1   1   1   1   0   1   1   1   1   1   1   1   1   1   1   0   0
5    1   1   1   0   1   0   1   1   0   1   1   1   0   1   1   1   1   1   1
6    1   1   1   0   1   0   1   1   0   1   1   1   0   1   1   1   1   1   1
7    1   1   1   1   0   1   1   0   1   1   0   1   1   0   1   1   0   1   1
8    1   1   1   1   0   1   1   0   1   1   0   1   1   0   1   1   0   1   1
9    1   1   1   1   0   1   1   0   1   1   0   1   1   0   1   1   0   1   1
10   1   1   1   1   1   1   1   1   1   0   1   0   1   1   1   0   1   1   1
11   1   1   1   1   1   1   1   1   1   0   1   0   1   1   1   0   1   1   1
12   1   1   1   1   0   1   1   0   1   1   0   1   1   0   1   1   0   1   1
13   1   1   1   1   1   1   1   1   1   0   1   0   1   1   1   0   1   1   1
14   0   1   1   1   1   1   0   1   1   1   1   1   1   1   1   1   1   0   0
15   1   1   1   0   1   0   1   1   0   1   1   1   0   1   1   1   1   1   1
16   1   1   1   0   1   0   1   1   0   1   1   1   0   1   1   1   1   1   1
17   0   1   1   1   1   1   0   1   1   1   1   1   1   1   1   1   1   0   0
18   0   1   1   1   1   1   0   1   1   1   1   1   1   1   1   1   1   0   0
19   1   1   1   1   0   1   1   0   1   1   0   1   1   0   1   1   0   1   1
20   0   1   1   1   1   1   0   1   1   1   1   1   1   1   1   1   1   0   0
21   1   0   0   1   1   1   1   1   1   1   1   1   1   1   0   1   1   1   1
22   1   0   0   1   1   1   1   1   1   1   1   1   1   1   0   1   1   1   1
23   1   1   1   0   1   0   1   1   0   1   1   1   0   1   1   1   1   1   1
24   1   1   1   1   0   1   1   0   1   1   0   1   1   0   1   1   0   1   1
25   1   1   1   0   1   0   1   1   0   1   1   1   0   1   1   1   1   1   1
26   0   1   1   1   1   1   0   1   1   1   1   1   1   1   1   1   1   0   0
27   1   1   1   1   0   1   1   0   1   1   0   1   1   0   1   1   0   1   1
28   1   1   1   0   1   0   1   1   0   1   1   1   0   1   1   1   1   1   1
29   1   1   1   1   1   1   1   1   1   0   1   0   1   1   1   0   1   1   1
30   1   1   1   1   0   1   1   0   1   1   0   1   1   0   1   1   0   1   1
31   1   1   1   1   1   1   1   1   1   0   1   0   1   1   1   0   1   1   1
32   1   1   1   0   1   0   1   1   0   1   1   1   0   1   1   1   1   1   1
33   1   1   1   1   0   1   1   0   1   1   0   1   1   0   1   1   0   1   1
34   1   0   0   1   1   1   1   1   1   1   1   1   1   1   0   1   1   1   1
35   1   1   1   1   1   1   1   1   1   0   1   0   1   1   1   0   1   1   1
36   1   1   1   1   0   1   1   0   1   1   0   1   1   0   1   1   0   1   1
37   0   1   1   1   1   1   0   1   1   1   1   1   1   1   1   1   1   0   0
38   0   1   1   1   1   1   0   1   1   1   1   1   1   1   1   1   1   0   0
39   1   1   1   0   1   0   1   1   0   1   1   1   0   1   1   1   1   1   1
40   1   1   1   0   1   0   1   1   0   1   1   1   0   1   1   1   1   1   1
41   0   1   1   1   1   1   0   1   1   1   1   1   1   1   1   1   1   0   0

:   39  40  41    :=
1    1   1   1
2    1   1   1
3    1   1   0
4    1   1   0
5    0   0   1
6    0   0   1
7    1   1   1
8    1   1   1
9    1   1   1
10   1   1   1
11   1   1   1
12   1   1   1
13   1   1   1
14   1   1   0
15   0   0   1
16   0   0   1
17   1   1   0
18   1   1   0
19   1   1   1
20   1   1   0
21   1   1   1
22   1   1   1
23   0   0   1
24   1   1   1
25   0   0   1
26   1   1   0
27   1   1   1
28   0   0   1
29   1   1   1
30   1   1   1
31   1   1   1
32   0   0   1
33   1   1   1
34   1   1   1
35   1   1   1
36   1   1   1
37   1   1   0
38   1   1   0
39   0   0   1
40   0   0   1
41   1   1   0
;

